RAW/CMTT/fspd-long/CMT11T.vrp_seed-8.out
998.8014964	175.558	200.158
