RAW/CMTT/fspd-long/CMT11T.vrp_seed-8.sol
Route #1: 119 82 111 86 88
Route #2: 87 92 89 85 112 84 117 113 83 18 114 97 94 93 96 99 102
Route #3: 105 106 104 103 73 76 68 77 79 80 78 75 72 74 71 70 69 67 107 120
Route #4: 115 37 38 39 42 41 44 47 46 49 50 51 48 45 43 40 110 116 101
Route #5: 95 109 21 20 23 26 28 32 35 29 36 34 31 30 33 27 24 22 25 19 16 17 118 90 91
Route #6: 52 54 57 59 65 61 62 64 66 63 60 56 58 55 53 98 100
Route #7: 81 2 1 3 4 5 6 7 9 10 11 15 14 13 12 8 108
Cost 998.801496